c defined variables: 8 9 10 11 12 13 14 15 16 17 18 19 20 21 22 23 24 25 26 27 28 29 30 31 32 33 48 49 50 53 54 55 56 57 58 59 61 63 64 65 66 67 68 69 70 71 72 73 74 
p cnf 355 554
a 1 2 3 4 5 6 7 37 38 39 40 41 42 43 44 45 46 47 0
e 8 9 10 11 12 13 14 15 16 17 18 19 20 21 22 23 24 25 26 27 28 29 30 31 32 33 48 49 50 53 54 55 56 57 58 59 61 63 64 65 66 67 68 69 70 71 72 73 74 268 269 270 271 272 273 274 275 276 277 278 279 280 281 282 283 284 285 286 287 288 289 290 291 292 293 294 295 296 297 298 299 300 301 302 303 304 305 306 307 308 309 310 311 312 313 314 315 316 317 318 319 320 321 322 323 324 325 326 327 328 329 330 331 332 333 334 335 336 337 338 339 340 341 342 343 344 345 346 347 348 349 350 351 352 353 354 355 0
d 34 37 38 39 0
d 35 37 38 39 0
d 36 40 41 42 43 44 45 46 47 0
d 51 1 2 3 4 5 6 7 37 38 39 40 41 42 43 44 45 46 47 0
d 52 1 2 3 4 5 6 7 37 38 39 40 41 42 43 44 45 46 47 0
d 60 1 2 3 4 5 6 7 37 38 39 40 41 42 43 44 45 46 47 0
d 62 1 2 3 4 5 6 7 37 38 39 40 41 42 43 44 45 46 47 0
268 -8 0
-268 8 0
269 -9 0
-269 9 0
-270 -10 0
270 10 0
271 -11 0
-271 11 0
272 -12 0
-272 12 0
-273 -13 0
273 13 0
274 -14 0
-274 14 0
275 -15 0
-275 15 0
-276 -16 0
276 16 0
277 -17 0
-277 17 0
278 -18 0
-278 18 0
-279 -19 0
279 19 0
280 -20 0
-280 20 0
281 -21 0
-281 21 0
-282 -22 0
282 22 0
-283 -23 0
283 23 0
284 -24 0
-284 24 0
286 -25 0
-286 25 0
288 -26 0
-288 26 0
-290 -27 0
290 27 0
291 -28 0
-291 28 0
292 -29 0
-292 29 0
294 -30 0
-294 30 0
295 -31 0
-295 31 0
296 -32 0
-296 32 0
-300 -33 0
300 33 0
277 -48 0
-277 48 0
278 -49 0
-278 49 0
-301 -50 0
301 50 0
-302 -53 0
302 53 0
-283 -54 0
283 54 0
284 -55 0
-284 55 0
304 -56 0
-304 56 0
308 -57 0
-308 57 0
-310 -58 0
310 58 0
313 -59 0
-313 59 0
-317 -61 0
317 61 0
320 -63 0
-320 63 0
323 -64 0
-323 64 0
326 -65 0
-326 65 0
329 -66 0
-329 66 0
332 -67 0
-332 67 0
335 -68 0
-335 68 0
338 -69 0
-338 69 0
341 -70 0
-341 70 0
344 -71 0
-344 71 0
347 -72 0
-347 72 0
-352 -73 0
352 73 0
355 -74 0
-355 74 0
-8 1 0
-8 4 0
-1 -4 8 0
-9 -1 0
-9 -4 0
1 4 9 0
-8 10 0
-9 10 0
-10 8 9 0
-11 7 0
-11 10 0
-7 -10 11 0
-12 -7 0
-12 -10 0
7 10 12 0
-11 13 0
-12 13 0
-13 11 12 0
-14 4 0
-14 7 0
-4 -7 14 0
-15 1 0
-15 -13 0
-1 13 15 0
-14 16 0
-15 16 0
-16 14 15 0
-17 3 0
-17 6 0
-3 -6 17 0
-18 -3 0
-18 -6 0
3 6 18 0
-17 19 0
-18 19 0
-19 17 18 0
-20 16 0
-20 19 0
-16 -19 20 0
-21 -16 0
-21 -19 0
16 19 21 0
-20 22 0
-21 22 0
-22 20 21 0
-2 23 0
-5 23 0
-23 2 5 0
-24 2 0
-24 5 0
-2 -5 24 0
-25 3 0
-25 -22 0
-25 23 0
-3 22 -23 25 0
-26 6 0
-26 16 0
-26 23 0
-6 -16 -23 26 0
-24 27 0
-25 27 0
-26 27 0
-27 24 25 26 0
-28 -27 0
-28 23 0
27 -23 28 0
-29 3 0
-29 6 0
-29 -27 0
-3 -6 27 29 0
-30 -27 0
-30 -22 0
-30 16 0
27 22 -16 30 0
-31 2 0
-31 3 0
-31 5 0
-31 6 0
-2 -3 -5 -6 31 0
-32 2 0
-32 5 0
-32 -22 0
-32 16 0
-2 -5 22 -16 32 0
-28 33 0
-29 33 0
-30 33 0
-31 33 0
-32 33 0
-33 28 29 30 31 32 0
-48 3 0
-48 6 0
-3 -6 48 0
-49 -3 0
-49 -6 0
3 6 49 0
-48 50 0
-49 50 0
-50 48 49 0
-51 34 0
-51 50 0
-34 -50 51 0
-52 -34 0
-52 -50 0
34 50 52 0
-51 53 0
-52 53 0
-53 51 52 0
-2 54 0
-5 54 0
-54 2 5 0
-55 2 0
-55 5 0
-2 -5 55 0
-56 3 0
-56 -53 0
-56 54 0
-3 53 -54 56 0
-57 6 0
-57 34 0
-57 54 0
-6 -34 -54 57 0
-55 58 0
-56 58 0
-57 58 0
-58 55 56 57 0
-59 -27 58 0
-59 27 -58 0
59 -27 -58 0
59 27 58 0
-60 -33 36 0
-60 33 -36 0
60 -33 -36 0
60 33 36 0
-61 -22 53 0
-61 22 -53 0
61 -22 -53 0
61 22 53 0
-62 -13 35 0
-62 13 -35 0
62 -13 -35 0
62 13 35 0
-59 -60 -61 -62 63 0
-63 59 0
-63 60 0
-63 61 0
-63 62 0
-1 -37 -64 0
-1 37 64 0
1 -37 64 0
1 37 -64 0
-4 -38 -65 0
-4 38 65 0
4 -38 65 0
4 38 -65 0
-7 -39 -66 0
-7 39 66 0
7 -39 66 0
7 39 -66 0
-2 -40 -67 0
-2 40 67 0
2 -40 67 0
2 40 -67 0
-3 -41 -68 0
-3 41 68 0
3 -41 68 0
3 41 -68 0
-5 -42 -69 0
-5 42 69 0
5 -42 69 0
5 42 -69 0
-6 -43 -70 0
-6 43 70 0
6 -43 70 0
6 43 -70 0
-58 -44 -71 0
-58 44 71 0
58 -44 71 0
58 44 -71 0
-53 -45 -72 0
-53 45 72 0
53 -45 72 0
53 45 -72 0
-34 -46 -73 0
-34 46 73 0
34 -46 73 0
34 46 -73 0
-54 -47 -74 0
-54 47 74 0
54 -47 74 0
54 47 -74 0
64 65 66 67 68 69 70 71 72 73 74 63 0
1 -268 0
4 -268 0
-1 -4 268 0
-1 -269 0
-4 -269 0
1 4 269 0
-8 -270 0
-9 -270 0
8 9 270 0
7 -271 0
10 -271 0
-7 -10 271 0
-7 -272 0
-10 -272 0
7 10 272 0
-11 -273 0
-12 -273 0
11 12 273 0
4 -274 0
7 -274 0
-4 -7 274 0
1 -275 0
-13 -275 0
-1 13 275 0
-14 -276 0
-15 -276 0
14 15 276 0
3 -277 0
6 -277 0
-3 -6 277 0
-3 -278 0
-6 -278 0
3 6 278 0
-17 -279 0
-18 -279 0
17 18 279 0
16 -280 0
19 -280 0
-16 -19 280 0
-16 -281 0
-19 -281 0
16 19 281 0
-20 -282 0
-21 -282 0
20 21 282 0
-2 -283 0
-5 -283 0
2 5 283 0
2 -284 0
5 -284 0
-2 -5 284 0
3 -285 0
-22 -285 0
-3 22 285 0
23 -286 0
285 -286 0
-23 -285 286 0
6 -287 0
16 -287 0
-6 -16 287 0
23 -288 0
287 -288 0
-23 -287 288 0
-24 -289 0
-25 -289 0
24 25 289 0
-26 -290 0
289 -290 0
26 -289 290 0
23 -291 0
-27 -291 0
-23 27 291 0
-27 -292 0
277 -292 0
27 -277 292 0
16 -293 0
-22 -293 0
-16 22 293 0
-27 -294 0
293 -294 0
27 -293 294 0
277 -295 0
284 -295 0
-277 -284 295 0
284 -296 0
293 -296 0
-284 -293 296 0
-28 -297 0
-29 -297 0
28 29 297 0
-30 -298 0
-31 -298 0
30 31 298 0
-32 -299 0
298 -299 0
32 -298 299 0
297 -300 0
299 -300 0
-297 -299 300 0
-48 -301 0
-49 -301 0
48 49 301 0
-51 -302 0
-52 -302 0
51 52 302 0
3 -303 0
-53 -303 0
-3 53 303 0
54 -304 0
303 -304 0
-54 -303 304 0
50 -305 0
-51 -305 0
-50 51 305 0
-52 -306 0
-305 -306 0
52 305 306 0
6 -307 0
54 -307 0
-6 -54 307 0
306 -308 0
307 -308 0
-306 -307 308 0
-55 -309 0
-56 -309 0
55 56 309 0
-57 -310 0
309 -310 0
57 -309 310 0
27 -311 0
-58 -311 0
-27 58 311 0
-27 -312 0
58 -312 0
27 -58 312 0
-311 -313 0
-312 -313 0
311 312 313 0
-22 -314 0
-53 -314 0
22 53 314 0
22 -315 0
53 -315 0
-22 -53 315 0
-302 -316 0
315 -316 0
302 -315 316 0
-314 -317 0
-316 -317 0
314 316 317 0
59 -318 0
60 -318 0
-59 -60 318 0
61 -319 0
62 -319 0
-61 -62 319 0
318 -320 0
319 -320 0
-318 -319 320 0
-1 -321 0
-37 -321 0
1 37 321 0
1 -322 0
37 -322 0
-1 -37 322 0
-321 -323 0
-322 -323 0
321 322 323 0
-4 -324 0
-38 -324 0
4 38 324 0
4 -325 0
38 -325 0
-4 -38 325 0
-324 -326 0
-325 -326 0
324 325 326 0
-7 -327 0
-39 -327 0
7 39 327 0
7 -328 0
39 -328 0
-7 -39 328 0
-327 -329 0
-328 -329 0
327 328 329 0
-2 -330 0
-40 -330 0
2 40 330 0
2 -331 0
40 -331 0
-2 -40 331 0
-330 -332 0
-331 -332 0
330 331 332 0
-3 -333 0
-41 -333 0
3 41 333 0
3 -334 0
41 -334 0
-3 -41 334 0
-333 -335 0
-334 -335 0
333 334 335 0
-5 -336 0
-42 -336 0
5 42 336 0
5 -337 0
42 -337 0
-5 -42 337 0
-336 -338 0
-337 -338 0
336 337 338 0
-6 -339 0
-43 -339 0
6 43 339 0
6 -340 0
43 -340 0
-6 -43 340 0
-339 -341 0
-340 -341 0
339 340 341 0
-44 -342 0
-58 -342 0
44 58 342 0
44 -343 0
58 -343 0
-44 -58 343 0
-342 -344 0
-343 -344 0
342 343 344 0
-45 -345 0
-53 -345 0
45 53 345 0
45 -346 0
53 -346 0
-45 -53 346 0
-345 -347 0
-346 -347 0
345 346 347 0
-46 -348 0
306 -348 0
46 -306 348 0
-50 -349 0
-52 -349 0
50 52 349 0
46 -350 0
-51 -350 0
-46 51 350 0
-349 -351 0
350 -351 0
349 -350 351 0
-348 -352 0
-351 -352 0
348 351 352 0
-47 -353 0
-54 -353 0
47 54 353 0
47 -354 0
54 -354 0
-47 -54 354 0
-353 -355 0
-354 -355 0
353 354 355 0
